50
150
100
96
94
93
91
91
91
88
84
83
80
78
78
76
75
74
72
72
70
65
61
60
56
52
51
51
48
46
45
38
38
37
37
37
36
35
35
32
32
31
30
29
29
28
27
27
23
23
22
21
